data/mps_files/pEFS/23_9.mps
NAME foo
ROWS
 N  OBJ
 E  allocateEach[1]
 E  allocateEach[2]
 E  allocateEach[3]
 E  allocateAllCash
 G  findWorstP[1,2]
 G  findWorstP[2,1]
COLUMNS
    z         OBJ       1
    z         findWorstP[1,2]  1
    z         findWorstP[2,1]  1
    cashProportion[1]  allocateAllCash  1
    cashProportion[1]  findWorstP[1,2]  3.2922894580891560e-01
    cashProportion[1]  findWorstP[2,1]  -5.6766575840145328e-01
    cashProportion[2]  allocateAllCash  1
    cashProportion[2]  findWorstP[1,2]  -3.2922894580891560e-01
    cashProportion[2]  findWorstP[2,1]  5.6766575840145328e-01
    MARKER    'MARKER'                 'INTORG'
    x[1,1]    allocateEach[1]  1
    x[1,1]    findWorstP[1,2]  2.9337591361032461e-01
    x[1,1]    findWorstP[2,1]  -1.8897593097184376e-01
    x[1,2]    allocateEach[2]  1
    x[1,2]    findWorstP[1,2]  3.2182129452821495e-01
    x[1,2]    findWorstP[2,1]  -6.6871026339691178e-02
    x[1,3]    allocateEach[3]  1
    x[1,3]    findWorstP[1,2]  5.5573846052544944e-02
    x[1,3]    findWorstP[2,1]  -1.7648728428701180e-01
    x[2,1]    allocateEach[1]  1
    x[2,1]    findWorstP[1,2]  -2.9337591361032461e-01
    x[2,1]    findWorstP[2,1]  1.8897593097184376e-01
    x[2,2]    allocateEach[2]  1
    x[2,2]    findWorstP[1,2]  -3.2182129452821495e-01
    x[2,2]    findWorstP[2,1]  6.6871026339691178e-02
    x[2,3]    allocateEach[3]  1
    x[2,3]    findWorstP[1,2]  -5.5573846052544944e-02
    x[2,3]    findWorstP[2,1]  1.7648728428701180e-01
    MARKER    'MARKER'                 'INTEND'
RHS
    RHS1      allocateEach[1]  1
    RHS1      allocateEach[2]  1
    RHS1      allocateEach[3]  1
    RHS1      allocateAllCash  1
BOUNDS
 UP BND1      z         1
 MI BND1      cashProportion[1]
 UP BND1      cashProportion[1]  1
 MI BND1      cashProportion[2]
 UP BND1      cashProportion[2]  1
 BV BND1      x[1,1]  
 BV BND1      x[1,2]  
 BV BND1      x[1,3]  
 BV BND1      x[2,1]  
 BV BND1      x[2,2]  
 BV BND1      x[2,3]  
ENDATA
